NAME: test1812
TYPE: TSP
DIMENSION: 11
EDGE_WEIGHT_TYPE: EUC_2D
NODE_COORD_SECTION
1 19.646319946040947 33.48397391816076
2 47.59400765377504 76.64621852632833
3 45.38441155010411 88.34903193765491
4 62.119727645877 76.60710912969458
5 50.61376874493928 1.812017971090063
6 87.0144169637067 42.18228693692952
7 14.620069606729569 59.484681781793384
8 78.0312386832859 28.256860796047146
9 3.3411469121810256 80.8348200571968
10 15.582830006030035 31.067424547408496
11 87.90114371544627 59.631923523609075
EOF
